num_offers = 30;
num_halls = 10;
start=[34,38,25,45,19,13,68,1,10,43,73,77,45,27,34,18,2,46,56,31,63,34,63,18,18,74,8,39,42,2];
end=[54,100,92,84,60,35,92,96,60,63,100,82,66,80,49,55,98,93,74,64,68,86,73,97,56,98,81,93,68,23];
price=[1331,831,4552,2662,1385,546,1877,6182,4312,520,519,200,235,1098,1490,1521,8625,1008,583,2640,230,3258,701,2218,2183,357,900,2786,484,492];
requirement=[964,571,399,369,725,480,616,653,625,674,932,229,488,310,324,349,221,688,536,302,222,545,346,421,432,433,624,356,334,224];
capacity=[798,971,833,399,651,758,688,937,786,814];
